\ENCODING=ISO-8859-1
\Problem name: IloCplex

Maximize
 obj1: z#381
Subject To
 c1:   q_5#0 + q_9#1 <= 5.78680400579611
 c2:   q_5#0 + q_4#2 + q_7#3 <= 5.51989749036209
 c3:   q_0#4 + q_8#5 <= 2.98636221206259
 c4:   q_3#6 + q_11#7 <= 5.60528358122707
 c5:   x_010#8 + x_07#9 + x_00#10 >= 1
 c6:   - 300 hap_1_00#11 + ap_00#12 <= 0
 c7:   x_010#8 + x_07#9 + x_00#10 + 2 hap_1_00#11 <= 3
 c8:   - x_03#13 >= -1
 c9:   - 300 han_2_00#14 + an_00#15 <= 0
 c10:  - x_03#13 + 2 han_2_00#14 <= 1
 c11:  x_112#16 >= 1
 c12:  - 300 hap_1_01#17 + ap_01#18 <= 0
 c13:  x_112#16 + 2 hap_1_01#17 <= 3
 c14:  - x_13#19 >= -1
 c15:  - 300 han_2_01#20 + an_01#21 <= 0
 c16:  - x_13#19 + 2 han_2_01#20 <= 1
 c17:  x_010#22 + x_07#23 + x_00#24 >= 1
 c18:  - 300 hap_1_10#25 + ap_10#26 <= 0
 c19:  x_010#22 + x_07#23 + x_00#24 + 2 hap_1_10#25 <= 3
 c20:  - x_03#27 >= -1
 c21:  - 300 han_2_10#28 + an_10#29 <= 0
 c22:  - x_03#27 + 2 han_2_10#28 <= 1
 c23:  x_112#30 >= 1
 c24:  - 300 hap_1_11#31 + ap_11#32 <= 0
 c25:  x_112#30 + 2 hap_1_11#31 <= 3
 c26:  - x_13#33 >= -1
 c27:  - 300 han_2_11#34 + an_11#35 <= 0
 c28:  - x_13#33 + 2 han_2_11#34 <= 1
 c29:  x_010#36 + x_07#37 + x_00#38 >= 1
 c30:  - 300 hap_1_20#39 + ap_20#40 <= 0
 c31:  x_010#36 + x_07#37 + x_00#38 + 2 hap_1_20#39 <= 3
 c32:  - x_03#41 >= -1
 c33:  - 300 han_2_20#42 + an_20#43 <= 0
 c34:  - x_03#41 + 2 han_2_20#42 <= 1
 c35:  x_112#44 >= 1
 c36:  - 300 hap_1_21#45 + ap_21#46 <= 0
 c37:  x_112#44 + 2 hap_1_21#45 <= 3
 c38:  - x_13#47 >= -1
 c39:  - 300 han_2_21#48 + an_21#49 <= 0
 c40:  - x_13#47 + 2 han_2_21#48 <= 1
 c41:  x_010#50 + x_07#51 + x_00#52 >= 1
 c42:  - 300 hap_1_30#53 + ap_30#54 <= 0
 c43:  x_010#50 + x_07#51 + x_00#52 + 2 hap_1_30#53 <= 3
 c44:  - x_03#55 >= -1
 c45:  - 300 han_2_30#56 + an_30#57 <= 0
 c46:  - x_03#55 + 2 han_2_30#56 <= 1
 c47:  x_112#58 >= 1
 c48:  - 300 hap_1_31#59 + ap_31#60 <= 0
 c49:  x_112#58 + 2 hap_1_31#59 <= 3
 c50:  - x_13#61 >= -1
 c51:  - 300 han_2_31#62 + an_31#63 <= 0
 c52:  - x_13#61 + 2 han_2_31#62 <= 1
 c53:  - x_00#10 + x_08#64 + x_04#65 - x_01#66 >= 0
 c54:  - 300 hb_000#67 + b_000#68 <= 0
 c55:  - x_00#10 + x_08#64 + x_04#65 - x_01#66 + 2 hb_000#67 <= 2
 c56:  x_03#13 - x_02#69 >= 0
 c57:  - 300 hb_001#70 + b_001#71 <= 0
 c58:  x_03#13 - x_02#69 + 2 hb_001#70 <= 2
 c59:  x_012#72 >= 0
 c60:  - 300 hb_003#73 + b_003#74 <= 0
 c61:  x_012#72 + 2 hb_003#73 <= 2
 c62:  - x_07#9 - x_04#65 + x_011#75 + x_09#76 - x_06#77 - x_05#78 >= 0
 c63:  - 300 hb_004#79 + b_004#80 <= 0
 c64:  - x_07#9 - x_04#65 + x_011#75 + x_09#76 - x_06#77 - x_05#78
       + 2 hb_004#79 <= 2
 c65:  - x_08#64 - x_09#76 + x_06#77 >= 0
 c66:  - 300 hb_005#81 + b_005#82 <= 0
 c67:  - x_08#64 - x_09#76 + x_06#77 + 2 hb_005#81 <= 2
 c68:  - x_010#8 >= 0
 c69:  - 300 hb_006#83 + b_006#84 <= 0
 c70:  - x_010#8 + 2 hb_006#83 <= 2
 c71:  x_02#69 - x_011#75 >= 0
 c72:  - 300 hb_008#85 + b_008#86 <= 0
 c73:  x_02#69 - x_011#75 + 2 hb_008#85 <= 2
 c74:  x_01#66 - x_012#72 >= 0
 c75:  - 300 hb_009#87 + b_009#88 <= 0
 c76:  x_01#66 - x_012#72 + 2 hb_009#87 <= 2
 c77:  x_18#89 + x_14#90 - x_11#91 - x_10#92 >= 0
 c78:  - 300 hb_010#93 + b_010#94 <= 0
 c79:  x_18#89 + x_14#90 - x_11#91 - x_10#92 + 2 hb_010#93 <= 2
 c80:  x_13#19 - x_12#95 >= 0
 c81:  - 300 hb_011#96 + b_011#97 <= 0
 c82:  x_13#19 - x_12#95 + 2 hb_011#96 <= 2
 c83:  - x_14#90 + x_111#98 + x_19#99 - x_17#100 - x_16#101 - x_15#102 >= 0
 c84:  - 300 hb_014#103 + b_014#104 <= 0
 c85:  - x_14#90 + x_111#98 + x_19#99 - x_17#100 - x_16#101 - x_15#102
       + 2 hb_014#103 <= 2
 c86:  - x_18#89 - x_19#99 + x_16#101 >= 0
 c87:  - 300 hb_015#105 + b_015#106 <= 0
 c88:  - x_18#89 - x_19#99 + x_16#101 + 2 hb_015#105 <= 2
 c89:  - x_110#107 >= 0
 c90:  - 300 hb_016#108 + b_016#109 <= 0
 c91:  - x_110#107 + 2 hb_016#108 <= 2
 c92:  x_10#92 + x_17#100 + x_110#107 >= 0
 c93:  - 300 hb_017#110 + b_017#111 <= 0
 c94:  x_10#92 + x_17#100 + x_110#107 + 2 hb_017#110 <= 2
 c95:  x_12#95 - x_111#98 >= 0
 c96:  - 300 hb_018#112 + b_018#113 <= 0
 c97:  x_12#95 - x_111#98 + 2 hb_018#112 <= 2
 c98:  - x_112#16 + x_11#91 >= 0
 c99:  - 300 hb_019#114 + b_019#115 <= 0
 c100: - x_112#16 + x_11#91 + 2 hb_019#114 <= 2
 c101: - x_00#24 + x_08#116 + x_04#117 - x_01#118 >= 0
 c102: - 300 hb_100#119 + b_100#120 <= 0
 c103: - x_00#24 + x_08#116 + x_04#117 - x_01#118 + 2 hb_100#119 <= 2
 c104: x_03#27 - x_02#121 >= 0
 c105: - 300 hb_101#122 + b_101#123 <= 0
 c106: x_03#27 - x_02#121 + 2 hb_101#122 <= 2
 c107: x_012#124 >= 0
 c108: - 300 hb_103#125 + b_103#126 <= 0
 c109: x_012#124 + 2 hb_103#125 <= 2
 c110: - x_07#23 - x_04#117 + x_011#127 + x_09#128 - x_06#129 - x_05#130 >= 0
 c111: - 300 hb_104#131 + b_104#132 <= 0
 c112: - x_07#23 - x_04#117 + x_011#127 + x_09#128 - x_06#129 - x_05#130
       + 2 hb_104#131 <= 2
 c113: - x_08#116 - x_09#128 + x_06#129 >= 0
 c114: - 300 hb_105#133 + b_105#134 <= 0
 c115: - x_08#116 - x_09#128 + x_06#129 + 2 hb_105#133 <= 2
 c116: - x_010#22 >= 0
 c117: - 300 hb_106#135 + b_106#136 <= 0
 c118: - x_010#22 + 2 hb_106#135 <= 2
 c119: x_02#121 - x_011#127 >= 0
 c120: - 300 hb_108#137 + b_108#138 <= 0
 c121: x_02#121 - x_011#127 + 2 hb_108#137 <= 2
 c122: x_01#118 - x_012#124 >= 0
 c123: - 300 hb_109#139 + b_109#140 <= 0
 c124: x_01#118 - x_012#124 + 2 hb_109#139 <= 2
 c125: x_18#141 + x_14#142 - x_11#143 - x_10#144 >= 0
 c126: - 300 hb_110#145 + b_110#146 <= 0
 c127: x_18#141 + x_14#142 - x_11#143 - x_10#144 + 2 hb_110#145 <= 2
 c128: x_13#33 - x_12#147 >= 0
 c129: - 300 hb_111#148 + b_111#149 <= 0
 c130: x_13#33 - x_12#147 + 2 hb_111#148 <= 2
 c131: - x_14#142 + x_111#150 + x_19#151 - x_17#152 - x_16#153 - x_15#154 >= 0
 c132: - 300 hb_114#155 + b_114#156 <= 0
 c133: - x_14#142 + x_111#150 + x_19#151 - x_17#152 - x_16#153 - x_15#154
       + 2 hb_114#155 <= 2
 c134: - x_18#141 - x_19#151 + x_16#153 >= 0
 c135: - 300 hb_115#157 + b_115#158 <= 0
 c136: - x_18#141 - x_19#151 + x_16#153 + 2 hb_115#157 <= 2
 c137: - x_110#159 >= 0
 c138: - 300 hb_116#160 + b_116#161 <= 0
 c139: - x_110#159 + 2 hb_116#160 <= 2
 c140: x_10#144 + x_17#152 + x_110#159 >= 0
 c141: - 300 hb_117#162 + b_117#163 <= 0
 c142: x_10#144 + x_17#152 + x_110#159 + 2 hb_117#162 <= 2
 c143: x_12#147 - x_111#150 >= 0
 c144: - 300 hb_118#164 + b_118#165 <= 0
 c145: x_12#147 - x_111#150 + 2 hb_118#164 <= 2
 c146: - x_112#30 + x_11#143 >= 0
 c147: - 300 hb_119#166 + b_119#167 <= 0
 c148: - x_112#30 + x_11#143 + 2 hb_119#166 <= 2
 c149: - x_00#38 + x_08#168 + x_04#169 - x_01#170 >= 0
 c150: - 300 hb_200#171 + b_200#172 <= 0
 c151: - x_00#38 + x_08#168 + x_04#169 - x_01#170 + 2 hb_200#171 <= 2
 c152: x_03#41 - x_02#173 >= 0
 c153: - 300 hb_201#174 + b_201#175 <= 0
 c154: x_03#41 - x_02#173 + 2 hb_201#174 <= 2
 c155: x_012#176 >= 0
 c156: - 300 hb_203#177 + b_203#178 <= 0
 c157: x_012#176 + 2 hb_203#177 <= 2
 c158: - x_07#37 - x_04#169 + x_011#179 + x_09#180 - x_06#181 - x_05#182 >= 0
 c159: - 300 hb_204#183 + b_204#184 <= 0
 c160: - x_07#37 - x_04#169 + x_011#179 + x_09#180 - x_06#181 - x_05#182
       + 2 hb_204#183 <= 2
 c161: - x_08#168 - x_09#180 + x_06#181 >= 0
 c162: - 300 hb_205#185 + b_205#186 <= 0
 c163: - x_08#168 - x_09#180 + x_06#181 + 2 hb_205#185 <= 2
 c164: - x_010#36 >= 0
 c165: - 300 hb_206#187 + b_206#188 <= 0
 c166: - x_010#36 + 2 hb_206#187 <= 2
 c167: x_02#173 - x_011#179 >= 0
 c168: - 300 hb_208#189 + b_208#190 <= 0
 c169: x_02#173 - x_011#179 + 2 hb_208#189 <= 2
 c170: x_01#170 - x_012#176 >= 0
 c171: - 300 hb_209#191 + b_209#192 <= 0
 c172: x_01#170 - x_012#176 + 2 hb_209#191 <= 2
 c173: x_18#193 + x_14#194 - x_11#195 - x_10#196 >= 0
 c174: - 300 hb_210#197 + b_210#198 <= 0
 c175: x_18#193 + x_14#194 - x_11#195 - x_10#196 + 2 hb_210#197 <= 2
 c176: x_13#47 - x_12#199 >= 0
 c177: - 300 hb_211#200 + b_211#201 <= 0
 c178: x_13#47 - x_12#199 + 2 hb_211#200 <= 2
 c179: - x_14#194 + x_111#202 + x_19#203 - x_17#204 - x_16#205 - x_15#206 >= 0
 c180: - 300 hb_214#207 + b_214#208 <= 0
 c181: - x_14#194 + x_111#202 + x_19#203 - x_17#204 - x_16#205 - x_15#206
       + 2 hb_214#207 <= 2
 c182: - x_18#193 - x_19#203 + x_16#205 >= 0
 c183: - 300 hb_215#209 + b_215#210 <= 0
 c184: - x_18#193 - x_19#203 + x_16#205 + 2 hb_215#209 <= 2
 c185: - x_110#211 >= 0
 c186: - 300 hb_216#212 + b_216#213 <= 0
 c187: - x_110#211 + 2 hb_216#212 <= 2
 c188: x_10#196 + x_17#204 + x_110#211 >= 0
 c189: - 300 hb_217#214 + b_217#215 <= 0
 c190: x_10#196 + x_17#204 + x_110#211 + 2 hb_217#214 <= 2
 c191: x_12#199 - x_111#202 >= 0
 c192: - 300 hb_218#216 + b_218#217 <= 0
 c193: x_12#199 - x_111#202 + 2 hb_218#216 <= 2
 c194: - x_112#44 + x_11#195 >= 0
 c195: - 300 hb_219#218 + b_219#219 <= 0
 c196: - x_112#44 + x_11#195 + 2 hb_219#218 <= 2
 c197: - x_00#52 + x_08#220 + x_04#221 - x_01#222 >= 0
 c198: - 300 hb_300#223 + b_300#224 <= 0
 c199: - x_00#52 + x_08#220 + x_04#221 - x_01#222 + 2 hb_300#223 <= 2
 c200: x_03#55 - x_02#225 >= 0
 c201: - 300 hb_301#226 + b_301#227 <= 0
 c202: x_03#55 - x_02#225 + 2 hb_301#226 <= 2
 c203: x_012#228 >= 0
 c204: - 300 hb_303#229 + b_303#230 <= 0
 c205: x_012#228 + 2 hb_303#229 <= 2
 c206: - x_07#51 - x_04#221 + x_011#231 + x_09#232 - x_06#233 - x_05#234 >= 0
 c207: - 300 hb_304#235 + b_304#236 <= 0
 c208: - x_07#51 - x_04#221 + x_011#231 + x_09#232 - x_06#233 - x_05#234
       + 2 hb_304#235 <= 2
 c209: - x_08#220 - x_09#232 + x_06#233 >= 0
 c210: - 300 hb_305#237 + b_305#238 <= 0
 c211: - x_08#220 - x_09#232 + x_06#233 + 2 hb_305#237 <= 2
 c212: - x_010#50 >= 0
 c213: - 300 hb_306#239 + b_306#240 <= 0
 c214: - x_010#50 + 2 hb_306#239 <= 2
 c215: x_02#225 - x_011#231 >= 0
 c216: - 300 hb_308#241 + b_308#242 <= 0
 c217: x_02#225 - x_011#231 + 2 hb_308#241 <= 2
 c218: x_01#222 - x_012#228 >= 0
 c219: - 300 hb_309#243 + b_309#244 <= 0
 c220: x_01#222 - x_012#228 + 2 hb_309#243 <= 2
 c221: x_18#245 + x_14#246 - x_11#247 - x_10#248 >= 0
 c222: - 300 hb_310#249 + b_310#250 <= 0
 c223: x_18#245 + x_14#246 - x_11#247 - x_10#248 + 2 hb_310#249 <= 2
 c224: x_13#61 - x_12#251 >= 0
 c225: - 300 hb_311#252 + b_311#253 <= 0
 c226: x_13#61 - x_12#251 + 2 hb_311#252 <= 2
 c227: - x_14#246 + x_111#254 + x_19#255 - x_17#256 - x_16#257 - x_15#258 >= 0
 c228: - 300 hb_314#259 + b_314#260 <= 0
 c229: - x_14#246 + x_111#254 + x_19#255 - x_17#256 - x_16#257 - x_15#258
       + 2 hb_314#259 <= 2
 c230: - x_18#245 - x_19#255 + x_16#257 >= 0
 c231: - 300 hb_315#261 + b_315#262 <= 0
 c232: - x_18#245 - x_19#255 + x_16#257 + 2 hb_315#261 <= 2
 c233: - x_110#263 >= 0
 c234: - 300 hb_316#264 + b_316#265 <= 0
 c235: - x_110#263 + 2 hb_316#264 <= 2
 c236: x_10#248 + x_17#256 + x_110#263 >= 0
 c237: - 300 hb_317#266 + b_317#267 <= 0
 c238: x_10#248 + x_17#256 + x_110#263 + 2 hb_317#266 <= 2
 c239: x_12#251 - x_111#254 >= 0
 c240: - 300 hb_318#268 + b_318#269 <= 0
 c241: x_12#251 - x_111#254 + 2 hb_318#268 <= 2
 c242: - x_112#58 + x_11#247 >= 0
 c243: - 300 hb_319#270 + b_319#271 <= 0
 c244: - x_112#58 + x_11#247 + 2 hb_319#270 <= 2
 c245: - q_0#4 + ap_00#12 - b_000#68 <= 0
 c246: x_00#10 - 2 hdu_000#272 <= 0
 c247: q_0#4 - ap_00#12 + b_000#68 + 300 hdu_000#272 <= 300
 c248: - b_000#68 + b_009#88 - q_1#273 <= 0.949999999999875
 c249: x_01#66 - 2 hdu_001#274 <= 0
 c250: b_000#68 - b_009#88 + q_1#273 + 300 hdu_001#274 <= 299.05
 c251: - b_001#71 + b_008#86 - q_2#275 <= 0
 c252: x_02#69 - 2 hdu_002#276 <= 0
 c253: b_001#71 - b_008#86 + q_2#275 + 300 hdu_002#276 <= 300
 c254: - q_3#6 - an_00#15 + b_001#71 <= 0
 c255: x_03#13 - 2 hdu_003#277 <= 0
 c256: q_3#6 + an_00#15 - b_001#71 + 300 hdu_003#277 <= 300
 c257: - q_4#2 + b_000#68 - b_004#80 <= 0
 c258: x_04#65 - 2 hdu_004#278 <= 0
 c259: q_4#2 - b_000#68 + b_004#80 + 300 hdu_004#278 <= 300
 c260: - q_5#0 - b_004#80 <= 0
 c261: x_05#78 - 2 hdu_005#279 <= 0
 c262: q_5#0 + b_004#80 + 300 hdu_005#279 <= 300
 c263: - b_004#80 + b_005#82 - q_6#280 <= 0
 c264: x_06#77 - 2 hdu_006#281 <= 0
 c265: b_004#80 - b_005#82 + q_6#280 + 300 hdu_006#281 <= 300
 c266: - q_7#3 + ap_00#12 - b_004#80 <= 0
 c267: x_07#9 - 2 hdu_007#282 <= 0
 c268: q_7#3 - ap_00#12 + b_004#80 + 300 hdu_007#282 <= 300
 c269: - q_8#5 + b_000#68 - b_005#82 <= 0
 c270: x_08#64 - 2 hdu_008#283 <= 0
 c271: q_8#5 - b_000#68 + b_005#82 + 300 hdu_008#283 <= 300
 c272: - q_9#1 + b_004#80 - b_005#82 <= 1
 c273: x_09#76 - 2 hdu_009#284 <= 0
 c274: q_9#1 - b_004#80 + b_005#82 + 300 hdu_009#284 <= 299
 c275: ap_00#12 - b_006#84 - q_10#285 <= 0
 c276: x_010#8 - 2 hdu_0010#286 <= 0
 c277: - ap_00#12 + b_006#84 + q_10#285 + 300 hdu_0010#286 <= 300
 c278: - q_11#7 + b_004#80 - b_008#86 <= 0
 c279: x_011#75 - 2 hdu_0011#287 <= 0
 c280: q_11#7 - b_004#80 + b_008#86 + 300 hdu_0011#287 <= 300
 c281: b_003#74 - b_009#88 - q_12#288 <= 0
 c282: x_012#72 - 2 hdu_0012#289 <= 0
 c283: - b_003#74 + b_009#88 + q_12#288 + 300 hdu_0012#289 <= 300
 c284: - q_0#4 - b_010#94 + b_017#111 <= 0
 c285: x_10#92 - 2 hdu_010#290 <= 0
 c286: q_0#4 + b_010#94 - b_017#111 + 300 hdu_010#290 <= 300
 c287: - b_010#94 + b_019#115 - q_1#273 <= 0
 c288: x_11#91 - 2 hdu_011#291 <= 0
 c289: b_010#94 - b_019#115 + q_1#273 + 300 hdu_011#291 <= 300
 c290: - b_011#97 + b_018#113 - q_2#275 <= 0
 c291: x_12#95 - 2 hdu_012#292 <= 0
 c292: b_011#97 - b_018#113 + q_2#275 + 300 hdu_012#292 <= 300
 c293: - q_3#6 - an_01#21 + b_011#97 <= 0
 c294: x_13#19 - 2 hdu_013#293 <= 0
 c295: q_3#6 + an_01#21 - b_011#97 + 300 hdu_013#293 <= 300
 c296: - q_4#2 + b_010#94 - b_014#104 <= 0
 c297: x_14#90 - 2 hdu_014#294 <= 0
 c298: q_4#2 - b_010#94 + b_014#104 + 300 hdu_014#294 <= 300
 c299: - q_5#0 - b_014#104 <= 0
 c300: x_15#102 - 2 hdu_015#295 <= 0
 c301: q_5#0 + b_014#104 + 300 hdu_015#295 <= 300
 c302: - b_014#104 + b_015#106 - q_6#280 <= 0
 c303: x_16#101 - 2 hdu_016#296 <= 0
 c304: b_014#104 - b_015#106 + q_6#280 + 300 hdu_016#296 <= 300
 c305: - q_7#3 - b_014#104 + b_017#111 <= 1.09999999999997
 c306: x_17#100 - 2 hdu_017#297 <= 0
 c307: q_7#3 + b_014#104 - b_017#111 + 300 hdu_017#297 <= 298.9
 c308: - q_8#5 + b_010#94 - b_015#106 <= 0
 c309: x_18#89 - 2 hdu_018#298 <= 0
 c310: q_8#5 - b_010#94 + b_015#106 + 300 hdu_018#298 <= 300
 c311: - q_9#1 + b_014#104 - b_015#106 <= 0
 c312: x_19#99 - 2 hdu_019#299 <= 0
 c313: q_9#1 - b_014#104 + b_015#106 + 300 hdu_019#299 <= 300
 c314: - b_016#109 + b_017#111 - q_10#285 <= 1
 c315: x_110#107 - 2 hdu_0110#300 <= 0
 c316: b_016#109 - b_017#111 + q_10#285 + 300 hdu_0110#300 <= 299
 c317: - q_11#7 + b_014#104 - b_018#113 <= 0
 c318: x_111#98 - 2 hdu_0111#301 <= 0
 c319: q_11#7 - b_014#104 + b_018#113 + 300 hdu_0111#301 <= 300
 c320: ap_01#18 - b_019#115 - q_12#288 <= 0
 c321: x_112#16 - 2 hdu_0112#302 <= 0
 c322: - ap_01#18 + b_019#115 + q_12#288 + 300 hdu_0112#302 <= 300
 c323: - q_0#4 + ap_10#26 - b_100#120 <= 0
 c324: x_00#24 - 2 hdu_100#303 <= 0
 c325: q_0#4 - ap_10#26 + b_100#120 + 300 hdu_100#303 <= 300
 c326: - b_100#120 + b_109#140 - q_1#273 <= 0
 c327: x_01#118 - 2 hdu_101#304 <= 0
 c328: b_100#120 - b_109#140 + q_1#273 + 300 hdu_101#304 <= 300
 c329: - b_101#123 + b_108#138 - q_2#275 <= 0
 c330: x_02#121 - 2 hdu_102#305 <= 0
 c331: b_101#123 - b_108#138 + q_2#275 + 300 hdu_102#305 <= 300
 c332: - q_3#6 - an_10#29 + b_101#123 <= 0
 c333: x_03#27 - 2 hdu_103#306 <= 0
 c334: q_3#6 + an_10#29 - b_101#123 + 300 hdu_103#306 <= 300
 c335: - q_4#2 + b_100#120 - b_104#132 <= 1
 c336: x_04#117 - 2 hdu_104#307 <= 0
 c337: q_4#2 - b_100#120 + b_104#132 + 300 hdu_104#307 <= 299
 c338: - q_5#0 - b_104#132 <= 0
 c339: x_05#130 - 2 hdu_105#308 <= 0
 c340: q_5#0 + b_104#132 + 300 hdu_105#308 <= 300
 c341: - b_104#132 + b_105#134 - q_6#280 <= 0
 c342: x_06#129 - 2 hdu_106#309 <= 0
 c343: b_104#132 - b_105#134 + q_6#280 + 300 hdu_106#309 <= 300
 c344: - q_7#3 + ap_10#26 - b_104#132 <= 0
 c345: x_07#23 - 2 hdu_107#310 <= 0
 c346: q_7#3 - ap_10#26 + b_104#132 + 300 hdu_107#310 <= 300
 c347: - q_8#5 + b_100#120 - b_105#134 <= 0
 c348: x_08#116 - 2 hdu_108#311 <= 0
 c349: q_8#5 - b_100#120 + b_105#134 + 300 hdu_108#311 <= 300
 c350: - q_9#1 + b_104#132 - b_105#134 <= 0
 c351: x_09#128 - 2 hdu_109#312 <= 0
 c352: q_9#1 - b_104#132 + b_105#134 + 300 hdu_109#312 <= 300
 c353: ap_10#26 - b_106#136 - q_10#285 <= 0
 c354: x_010#22 - 2 hdu_1010#313 <= 0
 c355: - ap_10#26 + b_106#136 + q_10#285 + 300 hdu_1010#313 <= 300
 c356: - q_11#7 + b_104#132 - b_108#138 <= 0
 c357: x_011#127 - 2 hdu_1011#314 <= 0
 c358: q_11#7 - b_104#132 + b_108#138 + 300 hdu_1011#314 <= 300
 c359: b_103#126 - b_109#140 - q_12#288 <= 0
 c360: x_012#124 - 2 hdu_1012#315 <= 0
 c361: - b_103#126 + b_109#140 + q_12#288 + 300 hdu_1012#315 <= 300
 c362: - q_0#4 - b_110#146 + b_117#163 <= 1.77499999999981
 c363: x_10#144 - 2 hdu_110#316 <= 0
 c364: q_0#4 + b_110#146 - b_117#163 + 300 hdu_110#316 <= 298.225
 c365: - b_110#146 + b_119#167 - q_1#273 <= 0
 c366: x_11#143 - 2 hdu_111#317 <= 0
 c367: b_110#146 - b_119#167 + q_1#273 + 300 hdu_111#317 <= 300
 c368: - b_111#149 + b_118#165 - q_2#275 <= 0
 c369: x_12#147 - 2 hdu_112#318 <= 0
 c370: b_111#149 - b_118#165 + q_2#275 + 300 hdu_112#318 <= 300
 c371: - q_3#6 - an_11#35 + b_111#149 <= 0
 c372: x_13#33 - 2 hdu_113#319 <= 0
 c373: q_3#6 + an_11#35 - b_111#149 + 300 hdu_113#319 <= 300
 c374: - q_4#2 + b_110#146 - b_114#156 <= 3
 c375: x_14#142 - 2 hdu_114#320 <= 0
 c376: q_4#2 - b_110#146 + b_114#156 + 300 hdu_114#320 <= 297
 c377: - q_5#0 - b_114#156 <= 0
 c378: x_15#154 - 2 hdu_115#321 <= 0
 c379: q_5#0 + b_114#156 + 300 hdu_115#321 <= 300
 c380: - b_114#156 + b_115#158 - q_6#280 <= 0
 c381: x_16#153 - 2 hdu_116#322 <= 0
 c382: b_114#156 - b_115#158 + q_6#280 + 300 hdu_116#322 <= 300
 c383: - q_7#3 - b_114#156 + b_117#163 <= 2.34999999999968
 c384: x_17#152 - 2 hdu_117#323 <= 0
 c385: q_7#3 + b_114#156 - b_117#163 + 300 hdu_117#323 <= 297.65
 c386: - q_8#5 + b_110#146 - b_115#158 <= 1.08863778793753
 c387: x_18#141 - 2 hdu_118#324 <= 0
 c388: q_8#5 - b_110#146 + b_115#158 + 300 hdu_118#324 <= 298.911362212062
 c389: - q_9#1 + b_114#156 - b_115#158 <= 0
 c390: x_19#151 - 2 hdu_119#325 <= 0
 c391: q_9#1 - b_114#156 + b_115#158 + 300 hdu_119#325 <= 300
 c392: - b_116#161 + b_117#163 - q_10#285 <= 0.725000000000318
 c393: x_110#159 - 2 hdu_1110#326 <= 0
 c394: b_116#161 - b_117#163 + q_10#285 + 300 hdu_1110#326 <= 299.275
 c395: - q_11#7 + b_114#156 - b_118#165 <= 0
 c396: x_111#150 - 2 hdu_1111#327 <= 0
 c397: q_11#7 - b_114#156 + b_118#165 + 300 hdu_1111#327 <= 300
 c398: ap_11#32 - b_119#167 - q_12#288 <= 0
 c399: x_112#30 - 2 hdu_1112#328 <= 0
 c400: - ap_11#32 + b_119#167 + q_12#288 + 300 hdu_1112#328 <= 300
 c401: - q_0#4 + ap_20#40 - b_200#172 <= 0
 c402: x_00#38 - 2 hdu_200#329 <= 0
 c403: q_0#4 - ap_20#40 + b_200#172 + 300 hdu_200#329 <= 300
 c404: - b_200#172 + b_209#192 - q_1#273 <= 0
 c405: x_01#170 - 2 hdu_201#330 <= 0
 c406: b_200#172 - b_209#192 + q_1#273 + 300 hdu_201#330 <= 300
 c407: - b_201#175 + b_208#190 - q_2#275 <= 0
 c408: x_02#173 - 2 hdu_202#331 <= 0
 c409: b_201#175 - b_208#190 + q_2#275 + 300 hdu_202#331 <= 300
 c410: - q_3#6 - an_20#43 + b_201#175 <= 0
 c411: x_03#41 - 2 hdu_203#332 <= 0
 c412: q_3#6 + an_20#43 - b_201#175 + 300 hdu_203#332 <= 300
 c413: - q_4#2 + b_200#172 - b_204#184 <= 0
 c414: x_04#169 - 2 hdu_204#333 <= 0
 c415: q_4#2 - b_200#172 + b_204#184 + 300 hdu_204#333 <= 300
 c416: - q_5#0 - b_204#184 <= 0
 c417: x_05#182 - 2 hdu_205#334 <= 0
 c418: q_5#0 + b_204#184 + 300 hdu_205#334 <= 300
 c419: - b_204#184 + b_205#186 - q_6#280 <= 0
 c420: x_06#181 - 2 hdu_206#335 <= 0
 c421: b_204#184 - b_205#186 + q_6#280 + 300 hdu_206#335 <= 300
 c422: - q_7#3 + ap_20#40 - b_204#184 <= 0
 c423: x_07#37 - 2 hdu_207#336 <= 0
 c424: q_7#3 - ap_20#40 + b_204#184 + 300 hdu_207#336 <= 300
 c425: - q_8#5 + b_200#172 - b_205#186 <= 0
 c426: x_08#168 - 2 hdu_208#337 <= 0
 c427: q_8#5 - b_200#172 + b_205#186 + 300 hdu_208#337 <= 300
 c428: - q_9#1 + b_204#184 - b_205#186 <= 0
 c429: x_09#180 - 2 hdu_209#338 <= 0
 c430: q_9#1 - b_204#184 + b_205#186 + 300 hdu_209#338 <= 300
 c431: ap_20#40 - b_206#188 - q_10#285 <= 0
 c432: x_010#36 - 2 hdu_2010#339 <= 0
 c433: - ap_20#40 + b_206#188 + q_10#285 + 300 hdu_2010#339 <= 300
 c434: - q_11#7 + b_204#184 - b_208#190 <= 0
 c435: x_011#179 - 2 hdu_2011#340 <= 0
 c436: q_11#7 - b_204#184 + b_208#190 + 300 hdu_2011#340 <= 300
 c437: b_203#178 - b_209#192 - q_12#288 <= 0
 c438: x_012#176 - 2 hdu_2012#341 <= 0
 c439: - b_203#178 + b_209#192 + q_12#288 + 300 hdu_2012#341 <= 300
 c440: - q_0#4 - b_210#198 + b_217#215 <= 1.6999999999997
 c441: x_10#196 - 2 hdu_210#342 <= 0
 c442: q_0#4 + b_210#198 - b_217#215 + 300 hdu_210#342 <= 298.3
 c443: - b_210#198 + b_219#219 - q_1#273 <= 0
 c444: x_11#195 - 2 hdu_211#343 <= 0
 c445: b_210#198 - b_219#219 + q_1#273 + 300 hdu_211#343 <= 300
 c446: - b_211#201 + b_218#217 - q_2#275 <= 0
 c447: x_12#199 - 2 hdu_212#344 <= 0
 c448: b_211#201 - b_218#217 + q_2#275 + 300 hdu_212#344 <= 300
 c449: - q_3#6 - an_21#49 + b_211#201 <= 0
 c450: x_13#47 - 2 hdu_213#345 <= 0
 c451: q_3#6 + an_21#49 - b_211#201 + 300 hdu_213#345 <= 300
 c452: - q_4#2 + b_210#198 - b_214#208 <= 3
 c453: x_14#194 - 2 hdu_214#346 <= 0
 c454: q_4#2 - b_210#198 + b_214#208 + 300 hdu_214#346 <= 297
 c455: - q_5#0 - b_214#208 <= 0
 c456: x_15#206 - 2 hdu_215#347 <= 0
 c457: q_5#0 + b_214#208 + 300 hdu_215#347 <= 300
 c458: - b_214#208 + b_215#210 - q_6#280 <= 0
 c459: x_16#205 - 2 hdu_216#348 <= 0
 c460: b_214#208 - b_215#210 + q_6#280 + 300 hdu_216#348 <= 300
 c461: - q_7#3 - b_214#208 + b_217#215 <= 2.34999999999968
 c462: x_17#204 - 2 hdu_217#349 <= 0
 c463: q_7#3 + b_214#208 - b_217#215 + 300 hdu_217#349 <= 297.65
 c464: - q_8#5 + b_210#198 - b_215#210 <= 1.16363778793764
 c465: x_18#193 - 2 hdu_218#350 <= 0
 c466: q_8#5 - b_210#198 + b_215#210 + 300 hdu_218#350 <= 298.836362212062
 c467: - q_9#1 + b_214#208 - b_215#210 <= 0
 c468: x_19#203 - 2 hdu_219#351 <= 0
 c469: q_9#1 - b_214#208 + b_215#210 + 300 hdu_219#351 <= 300
 c470: - b_216#213 + b_217#215 - q_10#285 <= 0.725000000000318
 c471: x_110#211 - 2 hdu_2110#352 <= 0
 c472: b_216#213 - b_217#215 + q_10#285 + 300 hdu_2110#352 <= 299.275
 c473: - q_11#7 + b_214#208 - b_218#217 <= 0
 c474: x_111#202 - 2 hdu_2111#353 <= 0
 c475: q_11#7 - b_214#208 + b_218#217 + 300 hdu_2111#353 <= 300
 c476: ap_21#46 - b_219#219 - q_12#288 <= 0
 c477: x_112#44 - 2 hdu_2112#354 <= 0
 c478: - ap_21#46 + b_219#219 + q_12#288 + 300 hdu_2112#354 <= 300
 c479: - q_0#4 + ap_30#54 - b_300#224 <= 0
 c480: x_00#52 - 2 hdu_300#355 <= 0
 c481: q_0#4 - ap_30#54 + b_300#224 + 300 hdu_300#355 <= 300
 c482: - b_300#224 + b_309#244 - q_1#273 <= 0
 c483: x_01#222 - 2 hdu_301#356 <= 0
 c484: b_300#224 - b_309#244 + q_1#273 + 300 hdu_301#356 <= 300
 c485: - b_301#227 + b_308#242 - q_2#275 <= 0
 c486: x_02#225 - 2 hdu_302#357 <= 0
 c487: b_301#227 - b_308#242 + q_2#275 + 300 hdu_302#357 <= 300
 c488: - q_3#6 - an_30#57 + b_301#227 <= 0
 c489: x_03#55 - 2 hdu_303#358 <= 0
 c490: q_3#6 + an_30#57 - b_301#227 + 300 hdu_303#358 <= 300
 c491: - q_4#2 + b_300#224 - b_304#236 <= 0
 c492: x_04#221 - 2 hdu_304#359 <= 0
 c493: q_4#2 - b_300#224 + b_304#236 + 300 hdu_304#359 <= 300
 c494: - q_5#0 - b_304#236 <= 0.275
 c495: x_05#234 - 2 hdu_305#360 <= 0
 c496: q_5#0 + b_304#236 + 300 hdu_305#360 <= 299.725
 c497: - b_304#236 + b_305#238 - q_6#280 <= 0
 c498: x_06#233 - 2 hdu_306#361 <= 0
 c499: b_304#236 - b_305#238 + q_6#280 + 300 hdu_306#361 <= 300
 c500: - q_7#3 + ap_30#54 - b_304#236 <= 0
 c501: x_07#51 - 2 hdu_307#362 <= 0
 c502: q_7#3 - ap_30#54 + b_304#236 + 300 hdu_307#362 <= 300
 c503: - q_8#5 + b_300#224 - b_305#238 <= 0
 c504: x_08#220 - 2 hdu_308#363 <= 0
 c505: q_8#5 - b_300#224 + b_305#238 + 300 hdu_308#363 <= 300
 c506: - q_9#1 + b_304#236 - b_305#238 <= 0.800000000000023
 c507: x_09#232 - 2 hdu_309#364 <= 0
 c508: q_9#1 - b_304#236 + b_305#238 + 300 hdu_309#364 <= 299.2
 c509: ap_30#54 - b_306#240 - q_10#285 <= 1
 c510: x_010#50 - 2 hdu_3010#365 <= 0
 c511: - ap_30#54 + b_306#240 + q_10#285 + 300 hdu_3010#365 <= 299
 c512: - q_11#7 + b_304#236 - b_308#242 <= 0
 c513: x_011#231 - 2 hdu_3011#366 <= 0
 c514: q_11#7 - b_304#236 + b_308#242 + 300 hdu_3011#366 <= 300
 c515: b_303#230 - b_309#244 - q_12#288 <= 0
 c516: x_012#228 - 2 hdu_3012#367 <= 0
 c517: - b_303#230 + b_309#244 + q_12#288 + 300 hdu_3012#367 <= 300
 c518: - q_0#4 - b_310#250 + b_317#267 <= 0
 c519: x_10#248 - 2 hdu_310#368 <= 0
 c520: q_0#4 + b_310#250 - b_317#267 + 300 hdu_310#368 <= 300
 c521: - b_310#250 + b_319#271 - q_1#273 <= 0
 c522: x_11#247 - 2 hdu_311#369 <= 0
 c523: b_310#250 - b_319#271 + q_1#273 + 300 hdu_311#369 <= 300
 c524: - b_311#253 + b_318#269 - q_2#275 <= 0
 c525: x_12#251 - 2 hdu_312#370 <= 0
 c526: b_311#253 - b_318#269 + q_2#275 + 300 hdu_312#370 <= 300
 c527: - q_3#6 - an_31#63 + b_311#253 <= 0
 c528: x_13#61 - 2 hdu_313#371 <= 0
 c529: q_3#6 + an_31#63 - b_311#253 + 300 hdu_313#371 <= 300
 c530: - q_4#2 + b_310#250 - b_314#260 <= 0
 c531: x_14#246 - 2 hdu_314#372 <= 0
 c532: q_4#2 - b_310#250 + b_314#260 + 300 hdu_314#372 <= 300
 c533: - q_5#0 - b_314#260 <= 0
 c534: x_15#258 - 2 hdu_315#373 <= 0
 c535: q_5#0 + b_314#260 + 300 hdu_315#373 <= 300
 c536: - b_314#260 + b_315#262 - q_6#280 <= 0.8
 c537: x_16#257 - 2 hdu_316#374 <= 0
 c538: b_314#260 - b_315#262 + q_6#280 + 300 hdu_316#374 <= 299.2
 c539: - q_7#3 - b_314#260 + b_317#267 <= 0
 c540: x_17#256 - 2 hdu_317#375 <= 0
 c541: q_7#3 + b_314#260 - b_317#267 + 300 hdu_317#375 <= 300
 c542: - q_8#5 + b_310#250 - b_315#262 <= 0
 c543: x_18#245 - 2 hdu_318#376 <= 0
 c544: q_8#5 - b_310#250 + b_315#262 + 300 hdu_318#376 <= 300
 c545: - q_9#1 + b_314#260 - b_315#262 <= 0
 c546: x_19#255 - 2 hdu_319#377 <= 0
 c547: q_9#1 - b_314#260 + b_315#262 + 300 hdu_319#377 <= 300
 c548: - b_316#265 + b_317#267 - q_10#285 <= 0
 c549: x_110#263 - 2 hdu_3110#378 <= 0
 c550: b_316#265 - b_317#267 + q_10#285 + 300 hdu_3110#378 <= 300
 c551: - q_11#7 + b_314#260 - b_318#269 <= 0
 c552: x_111#254 - 2 hdu_3111#379 <= 0
 c553: q_11#7 - b_314#260 + b_318#269 + 300 hdu_3111#379 <= 300
 c554: ap_31#60 - b_319#271 - q_12#288 <= 0
 c555: x_112#58 - 2 hdu_3112#380 <= 0
 c556: - ap_31#60 + b_319#271 + q_12#288 + 300 hdu_3112#380 <= 300
 c557: x_010#8 + 3 x_07#9 + 2 x_00#10 - ap_00#12 + 3 x_03#13 + an_00#15
       + 2 x_112#16 - ap_01#18 + 3 x_13#19 + an_01#21 + 2 x_08#64 + 3 x_04#65
       + 2.94999999999987 x_01#66 + 2 x_02#69 + 2 x_012#72 + 3 x_011#75
       + 3 x_09#76 + 3 x_06#77 + 3 x_05#78 + 2 x_18#89 + 3 x_14#90 + 2 x_11#91
       + 2 x_10#92 + 2 x_12#95 + 3 x_111#98 + 2 x_19#99
       + 4.09999999999997 x_17#100 + 3 x_16#101 + 3 x_15#102 + 2 x_110#107
       + z#381 <= 0
 c558: x_010#22 + 3 x_07#23 + 2 x_00#24 - ap_10#26 + 3 x_03#27 + an_10#29
       + 2 x_112#30 - ap_11#32 + 3 x_13#33 + an_11#35 + 2 x_08#116 + 4 x_04#117
       + 2 x_01#118 + 2 x_02#121 + 2 x_012#124 + 3 x_011#127 + 2 x_09#128
       + 3 x_06#129 + 3 x_05#130 + 3.08863778793753 x_18#141 + 6 x_14#142
       + 2 x_11#143 + 3.77499999999981 x_10#144 + 2 x_12#147 + 3 x_111#150
       + 2 x_19#151 + 5.34999999999968 x_17#152 + 3 x_16#153 + 3 x_15#154
       + 1.72500000000032 x_110#159 + z#381 <= 0
 c559: x_010#36 + 3 x_07#37 + 2 x_00#38 - ap_20#40 + 3 x_03#41 + an_20#43
       + 2 x_112#44 - ap_21#46 + 3 x_13#47 + an_21#49 + 2 x_08#168 + 3 x_04#169
       + 2 x_01#170 + 2 x_02#173 + 2 x_012#176 + 3 x_011#179 + 2 x_09#180
       + 3 x_06#181 + 3 x_05#182 + 3.16363778793764 x_18#193 + 6 x_14#194
       + 2 x_11#195 + 3.6999999999997 x_10#196 + 2 x_12#199 + 3 x_111#202
       + 2 x_19#203 + 5.34999999999968 x_17#204 + 3 x_16#205 + 3 x_15#206
       + 1.72500000000032 x_110#211 + z#381 <= 0
 c560: 2 x_010#50 + 3 x_07#51 + 2 x_00#52 - ap_30#54 + 3 x_03#55 + an_30#57
       + 2 x_112#58 - ap_31#60 + 3 x_13#61 + an_31#63 + 2 x_08#220 + 3 x_04#221
       + 2 x_01#222 + 2 x_02#225 + 2 x_012#228 + 3 x_011#231
       + 2.80000000000002 x_09#232 + 3 x_06#233 + 3.275 x_05#234 + 2 x_18#245
       + 3 x_14#246 + 2 x_11#247 + 2 x_10#248 + 2 x_12#251 + 3 x_111#254
       + 2 x_19#255 + 3 x_17#256 + 3.8 x_16#257 + 3 x_15#258 + x_110#263
       + z#381 <= 0
Bounds
 0 <= q_5#0 <= 2
 0 <= q_9#1 <= 3
      q_4#2 = 0
 0 <= q_7#3 <= 1
 0 <= q_0#4 <= 3
 0 <= q_8#5 <= 2
 0 <= q_3#6 <= 3
 0 <= q_11#7 <= 2
 0 <= x_010#8 <= 1
 0 <= x_07#9 <= 1
 0 <= x_00#10 <= 1
 0 <= hap_1_00#11 <= 1
 0 <= x_03#13 <= 1
 0 <= han_2_00#14 <= 1
 0 <= x_112#16 <= 1
 0 <= hap_1_01#17 <= 1
 0 <= x_13#19 <= 1
 0 <= han_2_01#20 <= 1
 0 <= x_010#22 <= 1
 0 <= x_07#23 <= 1
 0 <= x_00#24 <= 1
 0 <= hap_1_10#25 <= 1
 0 <= x_03#27 <= 1
 0 <= han_2_10#28 <= 1
 0 <= x_112#30 <= 1
 0 <= hap_1_11#31 <= 1
 0 <= x_13#33 <= 1
 0 <= han_2_11#34 <= 1
 0 <= x_010#36 <= 1
 0 <= x_07#37 <= 1
 0 <= x_00#38 <= 1
 0 <= hap_1_20#39 <= 1
 0 <= x_03#41 <= 1
 0 <= han_2_20#42 <= 1
 0 <= x_112#44 <= 1
 0 <= hap_1_21#45 <= 1
 0 <= x_13#47 <= 1
 0 <= han_2_21#48 <= 1
 0 <= x_010#50 <= 1
 0 <= x_07#51 <= 1
 0 <= x_00#52 <= 1
 0 <= hap_1_30#53 <= 1
 0 <= x_03#55 <= 1
 0 <= han_2_30#56 <= 1
 0 <= x_112#58 <= 1
 0 <= hap_1_31#59 <= 1
 0 <= x_13#61 <= 1
 0 <= han_2_31#62 <= 1
 0 <= x_08#64 <= 1
 0 <= x_04#65 <= 1
 0 <= x_01#66 <= 1
 0 <= hb_000#67 <= 1
 0 <= x_02#69 <= 1
 0 <= hb_001#70 <= 1
 0 <= x_012#72 <= 1
 0 <= hb_003#73 <= 1
 0 <= x_011#75 <= 1
 0 <= x_09#76 <= 1
 0 <= x_06#77 <= 1
 0 <= x_05#78 <= 1
 0 <= hb_004#79 <= 1
 0 <= hb_005#81 <= 1
 0 <= hb_006#83 <= 1
 0 <= hb_008#85 <= 1
 0 <= hb_009#87 <= 1
 0 <= x_18#89 <= 1
 0 <= x_14#90 <= 1
 0 <= x_11#91 <= 1
 0 <= x_10#92 <= 1
 0 <= hb_010#93 <= 1
 0 <= x_12#95 <= 1
 0 <= hb_011#96 <= 1
 0 <= x_111#98 <= 1
 0 <= x_19#99 <= 1
 0 <= x_17#100 <= 1
 0 <= x_16#101 <= 1
 0 <= x_15#102 <= 1
 0 <= hb_014#103 <= 1
 0 <= hb_015#105 <= 1
 0 <= x_110#107 <= 1
 0 <= hb_016#108 <= 1
 0 <= hb_017#110 <= 1
 0 <= hb_018#112 <= 1
 0 <= hb_019#114 <= 1
 0 <= x_08#116 <= 1
 0 <= x_04#117 <= 1
 0 <= x_01#118 <= 1
 0 <= hb_100#119 <= 1
 0 <= x_02#121 <= 1
 0 <= hb_101#122 <= 1
 0 <= x_012#124 <= 1
 0 <= hb_103#125 <= 1
 0 <= x_011#127 <= 1
 0 <= x_09#128 <= 1
 0 <= x_06#129 <= 1
 0 <= x_05#130 <= 1
 0 <= hb_104#131 <= 1
 0 <= hb_105#133 <= 1
 0 <= hb_106#135 <= 1
 0 <= hb_108#137 <= 1
 0 <= hb_109#139 <= 1
 0 <= x_18#141 <= 1
 0 <= x_14#142 <= 1
 0 <= x_11#143 <= 1
 0 <= x_10#144 <= 1
 0 <= hb_110#145 <= 1
 0 <= x_12#147 <= 1
 0 <= hb_111#148 <= 1
 0 <= x_111#150 <= 1
 0 <= x_19#151 <= 1
 0 <= x_17#152 <= 1
 0 <= x_16#153 <= 1
 0 <= x_15#154 <= 1
 0 <= hb_114#155 <= 1
 0 <= hb_115#157 <= 1
 0 <= x_110#159 <= 1
 0 <= hb_116#160 <= 1
 0 <= hb_117#162 <= 1
 0 <= hb_118#164 <= 1
 0 <= hb_119#166 <= 1
 0 <= x_08#168 <= 1
 0 <= x_04#169 <= 1
 0 <= x_01#170 <= 1
 0 <= hb_200#171 <= 1
 0 <= x_02#173 <= 1
 0 <= hb_201#174 <= 1
 0 <= x_012#176 <= 1
 0 <= hb_203#177 <= 1
 0 <= x_011#179 <= 1
 0 <= x_09#180 <= 1
 0 <= x_06#181 <= 1
 0 <= x_05#182 <= 1
 0 <= hb_204#183 <= 1
 0 <= hb_205#185 <= 1
 0 <= hb_206#187 <= 1
 0 <= hb_208#189 <= 1
 0 <= hb_209#191 <= 1
 0 <= x_18#193 <= 1
 0 <= x_14#194 <= 1
 0 <= x_11#195 <= 1
 0 <= x_10#196 <= 1
 0 <= hb_210#197 <= 1
 0 <= x_12#199 <= 1
 0 <= hb_211#200 <= 1
 0 <= x_111#202 <= 1
 0 <= x_19#203 <= 1
 0 <= x_17#204 <= 1
 0 <= x_16#205 <= 1
 0 <= x_15#206 <= 1
 0 <= hb_214#207 <= 1
 0 <= hb_215#209 <= 1
 0 <= x_110#211 <= 1
 0 <= hb_216#212 <= 1
 0 <= hb_217#214 <= 1
 0 <= hb_218#216 <= 1
 0 <= hb_219#218 <= 1
 0 <= x_08#220 <= 1
 0 <= x_04#221 <= 1
 0 <= x_01#222 <= 1
 0 <= hb_300#223 <= 1
 0 <= x_02#225 <= 1
 0 <= hb_301#226 <= 1
 0 <= x_012#228 <= 1
 0 <= hb_303#229 <= 1
 0 <= x_011#231 <= 1
 0 <= x_09#232 <= 1
 0 <= x_06#233 <= 1
 0 <= x_05#234 <= 1
 0 <= hb_304#235 <= 1
 0 <= hb_305#237 <= 1
 0 <= hb_306#239 <= 1
 0 <= hb_308#241 <= 1
 0 <= hb_309#243 <= 1
 0 <= x_18#245 <= 1
 0 <= x_14#246 <= 1
 0 <= x_11#247 <= 1
 0 <= x_10#248 <= 1
 0 <= hb_310#249 <= 1
 0 <= x_12#251 <= 1
 0 <= hb_311#252 <= 1
 0 <= x_111#254 <= 1
 0 <= x_19#255 <= 1
 0 <= x_17#256 <= 1
 0 <= x_16#257 <= 1
 0 <= x_15#258 <= 1
 0 <= hb_314#259 <= 1
 0 <= hb_315#261 <= 1
 0 <= x_110#263 <= 1
 0 <= hb_316#264 <= 1
 0 <= hb_317#266 <= 1
 0 <= hb_318#268 <= 1
 0 <= hb_319#270 <= 1
 0 <= hdu_000#272 <= 1
 0 <= q_1#273 <= 2
 0 <= hdu_001#274 <= 1
 0 <= q_2#275 <= 1
 0 <= hdu_002#276 <= 1
 0 <= hdu_003#277 <= 1
 0 <= hdu_004#278 <= 1
 0 <= hdu_005#279 <= 1
      q_6#280 = 0
 0 <= hdu_006#281 <= 1
 0 <= hdu_007#282 <= 1
 0 <= hdu_008#283 <= 1
 0 <= hdu_009#284 <= 1
 0 <= q_10#285 <= 2
 0 <= hdu_0010#286 <= 1
 0 <= hdu_0011#287 <= 1
 0 <= q_12#288 <= 1
 0 <= hdu_0012#289 <= 1
 0 <= hdu_010#290 <= 1
 0 <= hdu_011#291 <= 1
 0 <= hdu_012#292 <= 1
 0 <= hdu_013#293 <= 1
 0 <= hdu_014#294 <= 1
 0 <= hdu_015#295 <= 1
 0 <= hdu_016#296 <= 1
 0 <= hdu_017#297 <= 1
 0 <= hdu_018#298 <= 1
 0 <= hdu_019#299 <= 1
 0 <= hdu_0110#300 <= 1
 0 <= hdu_0111#301 <= 1
 0 <= hdu_0112#302 <= 1
 0 <= hdu_100#303 <= 1
 0 <= hdu_101#304 <= 1
 0 <= hdu_102#305 <= 1
 0 <= hdu_103#306 <= 1
 0 <= hdu_104#307 <= 1
 0 <= hdu_105#308 <= 1
 0 <= hdu_106#309 <= 1
 0 <= hdu_107#310 <= 1
 0 <= hdu_108#311 <= 1
 0 <= hdu_109#312 <= 1
 0 <= hdu_1010#313 <= 1
 0 <= hdu_1011#314 <= 1
 0 <= hdu_1012#315 <= 1
 0 <= hdu_110#316 <= 1
 0 <= hdu_111#317 <= 1
 0 <= hdu_112#318 <= 1
 0 <= hdu_113#319 <= 1
 0 <= hdu_114#320 <= 1
 0 <= hdu_115#321 <= 1
 0 <= hdu_116#322 <= 1
 0 <= hdu_117#323 <= 1
 0 <= hdu_118#324 <= 1
 0 <= hdu_119#325 <= 1
 0 <= hdu_1110#326 <= 1
 0 <= hdu_1111#327 <= 1
 0 <= hdu_1112#328 <= 1
 0 <= hdu_200#329 <= 1
 0 <= hdu_201#330 <= 1
 0 <= hdu_202#331 <= 1
 0 <= hdu_203#332 <= 1
 0 <= hdu_204#333 <= 1
 0 <= hdu_205#334 <= 1
 0 <= hdu_206#335 <= 1
 0 <= hdu_207#336 <= 1
 0 <= hdu_208#337 <= 1
 0 <= hdu_209#338 <= 1
 0 <= hdu_2010#339 <= 1
 0 <= hdu_2011#340 <= 1
 0 <= hdu_2012#341 <= 1
 0 <= hdu_210#342 <= 1
 0 <= hdu_211#343 <= 1
 0 <= hdu_212#344 <= 1
 0 <= hdu_213#345 <= 1
 0 <= hdu_214#346 <= 1
 0 <= hdu_215#347 <= 1
 0 <= hdu_216#348 <= 1
 0 <= hdu_217#349 <= 1
 0 <= hdu_218#350 <= 1
 0 <= hdu_219#351 <= 1
 0 <= hdu_2110#352 <= 1
 0 <= hdu_2111#353 <= 1
 0 <= hdu_2112#354 <= 1
 0 <= hdu_300#355 <= 1
 0 <= hdu_301#356 <= 1
 0 <= hdu_302#357 <= 1
 0 <= hdu_303#358 <= 1
 0 <= hdu_304#359 <= 1
 0 <= hdu_305#360 <= 1
 0 <= hdu_306#361 <= 1
 0 <= hdu_307#362 <= 1
 0 <= hdu_308#363 <= 1
 0 <= hdu_309#364 <= 1
 0 <= hdu_3010#365 <= 1
 0 <= hdu_3011#366 <= 1
 0 <= hdu_3012#367 <= 1
 0 <= hdu_310#368 <= 1
 0 <= hdu_311#369 <= 1
 0 <= hdu_312#370 <= 1
 0 <= hdu_313#371 <= 1
 0 <= hdu_314#372 <= 1
 0 <= hdu_315#373 <= 1
 0 <= hdu_316#374 <= 1
 0 <= hdu_317#375 <= 1
 0 <= hdu_318#376 <= 1
 0 <= hdu_319#377 <= 1
 0 <= hdu_3110#378 <= 1
 0 <= hdu_3111#379 <= 1
 0 <= hdu_3112#380 <= 1
      z#381 Free
Binaries
 hap_1_00#11  han_2_00#14  hap_1_01#17  han_2_01#20  hap_1_10#25  han_2_10#28 
 hap_1_11#31  han_2_11#34  hap_1_20#39  han_2_20#42  hap_1_21#45  han_2_21#48 
 hap_1_30#53  han_2_30#56  hap_1_31#59  han_2_31#62  hb_000#67  hb_001#70 
 hb_003#73  hb_004#79  hb_005#81  hb_006#83  hb_008#85  hb_009#87  hb_010#93 
 hb_011#96  hb_014#103  hb_015#105  hb_016#108  hb_017#110  hb_018#112 
 hb_019#114  hb_100#119  hb_101#122  hb_103#125  hb_104#131  hb_105#133 
 hb_106#135  hb_108#137  hb_109#139  hb_110#145  hb_111#148  hb_114#155 
 hb_115#157  hb_116#160  hb_117#162  hb_118#164  hb_119#166  hb_200#171 
 hb_201#174  hb_203#177  hb_204#183  hb_205#185  hb_206#187  hb_208#189 
 hb_209#191  hb_210#197  hb_211#200  hb_214#207  hb_215#209  hb_216#212 
 hb_217#214  hb_218#216  hb_219#218  hb_300#223  hb_301#226  hb_303#229 
 hb_304#235  hb_305#237  hb_306#239  hb_308#241  hb_309#243  hb_310#249 
 hb_311#252  hb_314#259  hb_315#261  hb_316#264  hb_317#266  hb_318#268 
 hb_319#270  hdu_000#272  hdu_001#274  hdu_002#276  hdu_003#277  hdu_004#278 
 hdu_005#279  hdu_006#281  hdu_007#282  hdu_008#283  hdu_009#284  hdu_0010#286 
 hdu_0011#287  hdu_0012#289  hdu_010#290  hdu_011#291  hdu_012#292 
 hdu_013#293  hdu_014#294  hdu_015#295  hdu_016#296  hdu_017#297  hdu_018#298 
 hdu_019#299  hdu_0110#300  hdu_0111#301  hdu_0112#302  hdu_100#303 
 hdu_101#304  hdu_102#305  hdu_103#306  hdu_104#307  hdu_105#308  hdu_106#309 
 hdu_107#310  hdu_108#311  hdu_109#312  hdu_1010#313  hdu_1011#314 
 hdu_1012#315  hdu_110#316  hdu_111#317  hdu_112#318  hdu_113#319  hdu_114#320 
 hdu_115#321  hdu_116#322  hdu_117#323  hdu_118#324  hdu_119#325  hdu_1110#326 
 hdu_1111#327  hdu_1112#328  hdu_200#329  hdu_201#330  hdu_202#331 
 hdu_203#332  hdu_204#333  hdu_205#334  hdu_206#335  hdu_207#336  hdu_208#337 
 hdu_209#338  hdu_2010#339  hdu_2011#340  hdu_2012#341  hdu_210#342 
 hdu_211#343  hdu_212#344  hdu_213#345  hdu_214#346  hdu_215#347  hdu_216#348 
 hdu_217#349  hdu_218#350  hdu_219#351  hdu_2110#352  hdu_2111#353 
 hdu_2112#354  hdu_300#355  hdu_301#356  hdu_302#357  hdu_303#358  hdu_304#359 
 hdu_305#360  hdu_306#361  hdu_307#362  hdu_308#363  hdu_309#364  hdu_3010#365 
 hdu_3011#366  hdu_3012#367  hdu_310#368  hdu_311#369  hdu_312#370 
 hdu_313#371  hdu_314#372  hdu_315#373  hdu_316#374  hdu_317#375  hdu_318#376 
 hdu_319#377  hdu_3110#378  hdu_3111#379  hdu_3112#380 
End
